
  22   10
  10   10   10   10   10   10   10   10   10   10

   0   0   0   0   0   0   0   0   0   0   0  13 2 3 4 5 6 7 8 9 10 18 19 20 21 
   2  10  10  10  10  10  10  10  10  10  10   4 17 16 12 11 
   3  10  10  10  10  10  10  10  10  10  10   3 15 12 11 
   8  10  10  10  10  10  10  10  10  10  10   1 13 
   9  10  10  10  10  10  10  10  10  10  10   1 13 
   1  10  10  10  10  10  10  10  10  10  10   1 14 
   3  10  10  10  10  10  10  10  10  10  10   1 12 
   2  10  10  10  10  10  10  10  10  10  10   1 11 
   6  10  10  10  10  10  10  10  10  10  10   1 11 
  10  10  10  10  10  10  10  10  10  10  10   1 11 
   4  10  10  10  10  10  10  10  10  10  10   1 22
   3  10  10  10  10  10  10  10  10  10  10   1 22
   4  10  10  10  10  10  10  10  10  10  10   1 22
   2  10  10  10  10  10  10  10  10  10  10   1 22
  10  10  10  10  10  10  10  10  10  10  10   1 22
   4  10  10  10  10  10  10  10  10  10  10   1 22
   1  10  10  10  10  10  10  10  10  10  10   1 22
   5  10  10  10  10  10  10  10  10  10  10   1 22
   5  10  10  10  10  10  10  10  10  10  10   1 22
   2  10  10  10  10  10  10  10  10  10  10   1 22
   6  10  10  10  10  10  10  10  10  10  10   1 22
   0   0   0   0   0   0   0   0   0   0   0   0 
